c description: Subset cardinality formula for fast_gnp_random_graph(6,8,0.9)
c generator: CNFgen (0.9.0)
c copyright: (C) 2012-2020 Massimo Lauria <massimo.lauria@uniroma1.it>
c url: https://massimolauria.net/cnfgen
c
p cnf 46 404
1 2 3 4 0
1 2 3 5 0
1 2 3 6 0
1 2 3 7 0
1 2 4 5 0
1 2 4 6 0
1 2 4 7 0
1 2 5 6 0
1 2 5 7 0
1 2 6 7 0
1 3 4 5 0
1 3 4 6 0
1 3 4 7 0
1 3 5 6 0
1 3 5 7 0
1 3 6 7 0
1 4 5 6 0
1 4 5 7 0
1 4 6 7 0
1 5 6 7 0
2 3 4 5 0
2 3 4 6 0
2 3 4 7 0
2 3 5 6 0
2 3 5 7 0
2 3 6 7 0
2 4 5 6 0
2 4 5 7 0
2 4 6 7 0
2 5 6 7 0
3 4 5 6 0
3 4 5 7 0
3 4 6 7 0
3 5 6 7 0
4 5 6 7 0
8 9 10 11 12 0
8 9 10 11 13 0
8 9 10 11 14 0
8 9 10 11 15 0
8 9 10 12 13 0
8 9 10 12 14 0
8 9 10 12 15 0
8 9 10 13 14 0
8 9 10 13 15 0
8 9 10 14 15 0
8 9 11 12 13 0
8 9 11 12 14 0
8 9 11 12 15 0
8 9 11 13 14 0
8 9 11 13 15 0
8 9 11 14 15 0
8 9 12 13 14 0
8 9 12 13 15 0
8 9 12 14 15 0
8 9 13 14 15 0
8 10 11 12 13 0
8 10 11 12 14 0
8 10 11 12 15 0
8 10 11 13 14 0
8 10 11 13 15 0
8 10 11 14 15 0
8 10 12 13 14 0
8 10 12 13 15 0
8 10 12 14 15 0
8 10 13 14 15 0
8 11 12 13 14 0
8 11 12 13 15 0
8 11 12 14 15 0
8 11 13 14 15 0
8 12 13 14 15 0
9 10 11 12 13 0
9 10 11 12 14 0
9 10 11 12 15 0
9 10 11 13 14 0
9 10 11 13 15 0
9 10 11 14 15 0
9 10 12 13 14 0
9 10 12 13 15 0
9 10 12 14 15 0
9 10 13 14 15 0
9 11 12 13 14 0
9 11 12 13 15 0
9 11 12 14 15 0
9 11 13 14 15 0
9 12 13 14 15 0
10 11 12 13 14 0
10 11 12 13 15 0
10 11 12 14 15 0
10 11 13 14 15 0
10 12 13 14 15 0
11 12 13 14 15 0
16 17 18 19 20 0
16 17 18 19 21 0
16 17 18 19 22 0
16 17 18 19 23 0
16 17 18 20 21 0
16 17 18 20 22 0
16 17 18 20 23 0
16 17 18 21 22 0
16 17 18 21 23 0
16 17 18 22 23 0
16 17 19 20 21 0
16 17 19 20 22 0
16 17 19 20 23 0
16 17 19 21 22 0
16 17 19 21 23 0
16 17 19 22 23 0
16 17 20 21 22 0
16 17 20 21 23 0
16 17 20 22 23 0
16 17 21 22 23 0
16 18 19 20 21 0
16 18 19 20 22 0
16 18 19 20 23 0
16 18 19 21 22 0
16 18 19 21 23 0
16 18 19 22 23 0
16 18 20 21 22 0
16 18 20 21 23 0
16 18 20 22 23 0
16 18 21 22 23 0
16 19 20 21 22 0
16 19 20 21 23 0
16 19 20 22 23 0
16 19 21 22 23 0
16 20 21 22 23 0
17 18 19 20 21 0
17 18 19 20 22 0
17 18 19 20 23 0
17 18 19 21 22 0
17 18 19 21 23 0
17 18 19 22 23 0
17 18 20 21 22 0
17 18 20 21 23 0
17 18 20 22 23 0
17 18 21 22 23 0
17 19 20 21 22 0
17 19 20 21 23 0
17 19 20 22 23 0
17 19 21 22 23 0
17 20 21 22 23 0
18 19 20 21 22 0
18 19 20 21 23 0
18 19 20 22 23 0
18 19 21 22 23 0
18 20 21 22 23 0
19 20 21 22 23 0
24 25 26 27 28 0
24 25 26 27 29 0
24 25 26 27 30 0
24 25 26 27 31 0
24 25 26 28 29 0
24 25 26 28 30 0
24 25 26 28 31 0
24 25 26 29 30 0
24 25 26 29 31 0
24 25 26 30 31 0
24 25 27 28 29 0
24 25 27 28 30 0
24 25 27 28 31 0
24 25 27 29 30 0
24 25 27 29 31 0
24 25 27 30 31 0
24 25 28 29 30 0
24 25 28 29 31 0
24 25 28 30 31 0
24 25 29 30 31 0
24 26 27 28 29 0
24 26 27 28 30 0
24 26 27 28 31 0
24 26 27 29 30 0
24 26 27 29 31 0
24 26 27 30 31 0
24 26 28 29 30 0
24 26 28 29 31 0
24 26 28 30 31 0
24 26 29 30 31 0
24 27 28 29 30 0
24 27 28 29 31 0
24 27 28 30 31 0
24 27 29 30 31 0
24 28 29 30 31 0
25 26 27 28 29 0
25 26 27 28 30 0
25 26 27 28 31 0
25 26 27 29 30 0
25 26 27 29 31 0
25 26 27 30 31 0
25 26 28 29 30 0
25 26 28 29 31 0
25 26 28 30 31 0
25 26 29 30 31 0
25 27 28 29 30 0
25 27 28 29 31 0
25 27 28 30 31 0
25 27 29 30 31 0
25 28 29 30 31 0
26 27 28 29 30 0
26 27 28 29 31 0
26 27 28 30 31 0
26 27 29 30 31 0
26 28 29 30 31 0
27 28 29 30 31 0
32 33 34 35 0
32 33 34 36 0
32 33 34 37 0
32 33 34 38 0
32 33 35 36 0
32 33 35 37 0
32 33 35 38 0
32 33 36 37 0
32 33 36 38 0
32 33 37 38 0
32 34 35 36 0
32 34 35 37 0
32 34 35 38 0
32 34 36 37 0
32 34 36 38 0
32 34 37 38 0
32 35 36 37 0
32 35 36 38 0
32 35 37 38 0
32 36 37 38 0
33 34 35 36 0
33 34 35 37 0
33 34 35 38 0
33 34 36 37 0
33 34 36 38 0
33 34 37 38 0
33 35 36 37 0
33 35 36 38 0
33 35 37 38 0
33 36 37 38 0
34 35 36 37 0
34 35 36 38 0
34 35 37 38 0
34 36 37 38 0
35 36 37 38 0
39 40 41 42 43 0
39 40 41 42 44 0
39 40 41 42 45 0
39 40 41 42 46 0
39 40 41 43 44 0
39 40 41 43 45 0
39 40 41 43 46 0
39 40 41 44 45 0
39 40 41 44 46 0
39 40 41 45 46 0
39 40 42 43 44 0
39 40 42 43 45 0
39 40 42 43 46 0
39 40 42 44 45 0
39 40 42 44 46 0
39 40 42 45 46 0
39 40 43 44 45 0
39 40 43 44 46 0
39 40 43 45 46 0
39 40 44 45 46 0
39 41 42 43 44 0
39 41 42 43 45 0
39 41 42 43 46 0
39 41 42 44 45 0
39 41 42 44 46 0
39 41 42 45 46 0
39 41 43 44 45 0
39 41 43 44 46 0
39 41 43 45 46 0
39 41 44 45 46 0
39 42 43 44 45 0
39 42 43 44 46 0
39 42 43 45 46 0
39 42 44 45 46 0
39 43 44 45 46 0
40 41 42 43 44 0
40 41 42 43 45 0
40 41 42 43 46 0
40 41 42 44 45 0
40 41 42 44 46 0
40 41 42 45 46 0
40 41 43 44 45 0
40 41 43 44 46 0
40 41 43 45 46 0
40 41 44 45 46 0
40 42 43 44 45 0
40 42 43 44 46 0
40 42 43 45 46 0
40 42 44 45 46 0
40 43 44 45 46 0
41 42 43 44 45 0
41 42 43 44 46 0
41 42 43 45 46 0
41 42 44 45 46 0
41 43 44 45 46 0
42 43 44 45 46 0
-1 -8 -16 -24 0
-1 -8 -16 -32 0
-1 -8 -16 -39 0
-1 -8 -24 -32 0
-1 -8 -24 -39 0
-1 -8 -32 -39 0
-1 -16 -24 -32 0
-1 -16 -24 -39 0
-1 -16 -32 -39 0
-1 -24 -32 -39 0
-8 -16 -24 -32 0
-8 -16 -24 -39 0
-8 -16 -32 -39 0
-8 -24 -32 -39 0
-16 -24 -32 -39 0
-2 -9 -17 0
-2 -9 -25 0
-2 -9 -40 0
-2 -17 -25 0
-2 -17 -40 0
-2 -25 -40 0
-9 -17 -25 0
-9 -17 -40 0
-9 -25 -40 0
-17 -25 -40 0
-3 -10 -18 -26 0
-3 -10 -18 -33 0
-3 -10 -18 -41 0
-3 -10 -26 -33 0
-3 -10 -26 -41 0
-3 -10 -33 -41 0
-3 -18 -26 -33 0
-3 -18 -26 -41 0
-3 -18 -33 -41 0
-3 -26 -33 -41 0
-10 -18 -26 -33 0
-10 -18 -26 -41 0
-10 -18 -33 -41 0
-10 -26 -33 -41 0
-18 -26 -33 -41 0
-4 -11 -19 -27 0
-4 -11 -19 -34 0
-4 -11 -19 -42 0
-4 -11 -27 -34 0
-4 -11 -27 -42 0
-4 -11 -34 -42 0
-4 -19 -27 -34 0
-4 -19 -27 -42 0
-4 -19 -34 -42 0
-4 -27 -34 -42 0
-11 -19 -27 -34 0
-11 -19 -27 -42 0
-11 -19 -34 -42 0
-11 -27 -34 -42 0
-19 -27 -34 -42 0
-5 -12 -20 -28 0
-5 -12 -20 -35 0
-5 -12 -20 -43 0
-5 -12 -28 -35 0
-5 -12 -28 -43 0
-5 -12 -35 -43 0
-5 -20 -28 -35 0
-5 -20 -28 -43 0
-5 -20 -35 -43 0
-5 -28 -35 -43 0
-12 -20 -28 -35 0
-12 -20 -28 -43 0
-12 -20 -35 -43 0
-12 -28 -35 -43 0
-20 -28 -35 -43 0
-13 -21 -29 0
-13 -21 -36 0
-13 -21 -44 0
-13 -29 -36 0
-13 -29 -44 0
-13 -36 -44 0
-21 -29 -36 0
-21 -29 -44 0
-21 -36 -44 0
-29 -36 -44 0
-6 -14 -22 -30 0
-6 -14 -22 -37 0
-6 -14 -22 -45 0
-6 -14 -30 -37 0
-6 -14 -30 -45 0
-6 -14 -37 -45 0
-6 -22 -30 -37 0
-6 -22 -30 -45 0
-6 -22 -37 -45 0
-6 -30 -37 -45 0
-14 -22 -30 -37 0
-14 -22 -30 -45 0
-14 -22 -37 -45 0
-14 -30 -37 -45 0
-22 -30 -37 -45 0
-7 -15 -23 -31 0
-7 -15 -23 -38 0
-7 -15 -23 -46 0
-7 -15 -31 -38 0
-7 -15 -31 -46 0
-7 -15 -38 -46 0
-7 -23 -31 -38 0
-7 -23 -31 -46 0
-7 -23 -38 -46 0
-7 -31 -38 -46 0
-15 -23 -31 -38 0
-15 -23 -31 -46 0
-15 -23 -38 -46 0
-15 -31 -38 -46 0
-23 -31 -38 -46 0